Gurobi Optimizer version 9.1.0 build v9.1.0rc0 (linux64)
Thread count: 8 physical cores, 16 logical processors, using up to 16 threads
Optimize a model with 623674 rows, 601200 columns and 3502950 nonzeros
Model fingerprint: 0x6fd11704
Variable types: 0 continuous, 601200 integer (601200 binary)
Coefficient statistics:
  Matrix range     [1e+00, 1e+00]
  Objective range  [1e+01, 1e+05]
  Bounds range     [1e+00, 1e+00]
  RHS range        [1e+00, 1e+03]
Presolve removed 50 rows and 50 columns (presolve time = 5s) ...
Presolve removed 10050 rows and 50 columns (presolve time = 10s) ...
Presolve added 0 rows and 9950 columns
Presolve removed 50 rows and 0 columns
Presolve time: 13.30s
Presolved: 623624 rows, 611150 columns, 2532850 nonzeros
Variable types: 0 continuous, 611150 integer (611150 binary)
Found heuristic solution: objective 1008143.0000

Concurrent LP optimizer: primal simplex, dual simplex, and barrier
Showing barrier log only...

Root barrier log...

Ordering time: 0.22s

Barrier statistics:
 Dense cols : 600
 AA' NZ     : 1.949e+06
 Factor NZ  : 1.286e+07 (roughly 600 MBytes of memory)
 Factor Ops : 5.972e+09 (less than 1 second per iteration)
 Threads    : 6

                  Objective                Residual
Iter       Primal          Dual         Primal    Dual     Compl     Time
   0   8.32528791e+08 -1.28097863e+09  6.49e+02 2.90e+01  3.11e+04    28s
   1   2.49725762e+06 -1.33785837e+09  2.89e+00 3.33e+03  8.26e+02    29s
   2   1.42372635e+06 -3.87778874e+08  7.42e-01 8.27e+02  2.23e+02    31s
   3   1.29638254e+06 -1.39263975e+08  4.88e-01 2.80e+02  7.99e+01    33s
   4   1.09714769e+06 -5.87834647e+07  9.70e-02 1.21e+02  3.30e+01    35s
   5   1.02294039e+06 -6.49709840e+06  3.76e-03 1.59e+01  4.10e+00    36s
   6   9.83512540e+05 -1.91063619e+05  2.30e-03 1.30e+00  6.40e-01    38s
   7   9.55276512e+05  3.11747046e+05  1.84e-03 5.92e-01  3.51e-01    40s
   8   9.23416166e+05  4.52550869e+05  1.48e-03 4.19e-01  2.56e-01    41s
   9   9.06860486e+05  5.36724795e+05  1.32e-03 2.90e-01  2.02e-01    43s
  10   8.80956607e+05  6.08784234e+05  1.12e-03 1.75e-01  1.48e-01    45s
  11   8.67509204e+05  6.56688098e+05  1.02e-03 1.01e-01  1.15e-01    49s
  12   8.46059738e+05  6.78342565e+05  8.82e-04 6.62e-02  9.13e-02    52s
  13   8.34028858e+05  6.92494746e+05  8.10e-04 4.81e-02  7.70e-02    54s
  14   8.18125835e+05  7.01938174e+05  7.15e-04 3.18e-02  6.32e-02    57s
  15   8.06876038e+05  7.08445873e+05  6.38e-04 2.26e-02  5.35e-02    59s
  16   7.94170853e+05  7.12207776e+05  5.52e-04 1.68e-02  4.46e-02    61s
  17   7.87586983e+05  7.14513244e+05  5.08e-04 1.38e-02  3.97e-02    64s
  18   7.82932405e+05  7.14961858e+05  4.75e-04 1.32e-02  3.70e-02    66s
  19   7.73996878e+05  7.17122220e+05  4.11e-04 1.11e-02  3.09e-02    68s
  20   7.66830423e+05  7.18801161e+05  3.54e-04 7.94e-03  2.61e-02    70s
  21   7.59016165e+05  7.19866127e+05  2.97e-04 7.03e-03  2.13e-02    72s
  22   7.52117170e+05  7.20855343e+05  2.50e-04 5.20e-03  1.70e-02    74s
  23   7.44137487e+05  7.21449338e+05  1.87e-04 4.08e-03  1.23e-02    76s
  24   7.41292857e+05  7.21980374e+05  1.61e-04 3.25e-03  1.05e-02    78s
  25   7.39077097e+05  7.22501900e+05  1.43e-04 2.53e-03  9.01e-03    80s
  26   7.38107034e+05  7.22707324e+05  1.33e-04 2.23e-03  8.37e-03    82s
  27   7.35087747e+05  7.22944242e+05  1.05e-04 1.90e-03  6.60e-03    84s
  28   7.33443007e+05  7.23183766e+05  9.03e-05 1.55e-03  5.58e-03    85s
  29   7.32563806e+05  7.23514342e+05  8.35e-05 1.18e-03  4.92e-03    87s
  30   7.31569611e+05  7.23631262e+05  7.36e-05 1.01e-03  4.31e-03    89s
  31   7.30891509e+05  7.23687030e+05  6.72e-05 9.34e-04  3.92e-03    91s
  32   7.29625465e+05  7.23905055e+05  5.55e-05 7.05e-04  3.11e-03    93s
  33   7.28696036e+05  7.24005566e+05  4.76e-05 5.50e-04  2.55e-03    94s
  34   7.28102466e+05  7.24066389e+05  4.16e-05 4.67e-04  2.19e-03    96s
  35   7.27688599e+05  7.24109091e+05  3.78e-05 4.09e-04  1.94e-03    98s
  36   7.27243994e+05  7.24160895e+05  3.34e-05 3.42e-04  1.68e-03    99s
  37   7.26902220e+05  7.24194651e+05  3.00e-05 3.09e-04  1.47e-03   101s
  38   7.26406297e+05  7.24216840e+05  2.43e-05 2.79e-04  1.19e-03   103s
  39   7.26260819e+05  7.24273243e+05  2.26e-05 2.05e-04  1.08e-03   105s
  40   7.26037923e+05  7.24293374e+05  1.99e-05 1.78e-04  9.48e-04   107s
  41   7.25790991e+05  7.24314480e+05  1.72e-05 1.65e-04  8.02e-04   109s
  42   7.25541715e+05  7.24327543e+05  1.42e-05 1.49e-04  6.60e-04   111s
  43   7.25499581e+05  7.24336859e+05  1.38e-05 1.39e-04  6.32e-04   113s
  44   7.25304697e+05  7.24352428e+05  1.15e-05 1.19e-04  5.17e-04   114s
  45   7.25218196e+05  7.24381694e+05  1.04e-05 1.03e-04  4.54e-04   116s
  46   7.25171359e+05  7.24388387e+05  9.79e-06 9.23e-05  4.25e-04   118s
  47   7.25091422e+05  7.24395060e+05  8.75e-06 8.04e-05  3.78e-04   120s
  48   7.24954930e+05  7.24402788e+05  7.05e-06 7.57e-05  3.00e-04   121s
  49   7.24923764e+05  7.24412862e+05  6.67e-06 6.26e-05  2.77e-04   123s
  50   7.24887646e+05  7.24422409e+05  6.22e-06 4.99e-05  2.53e-04   125s
  51   7.24827773e+05  7.24432609e+05  5.37e-06 5.39e-05  2.15e-04   127s
  52   7.24787436e+05  7.24436100e+05  4.92e-06 4.62e-05  1.91e-04   128s
  53   7.24719507e+05  7.24438039e+05  3.96e-06 4.15e-05  1.53e-04   130s
  54   7.24676787e+05  7.24440527e+05  3.34e-06 3.80e-05  1.28e-04   132s
  55   7.24638148e+05  7.24441985e+05  2.79e-06 3.56e-05  1.06e-04   133s
  56   7.24612099e+05  7.24444993e+05  2.40e-06 3.13e-05  9.07e-05   135s
  57   7.24593379e+05  7.24446306e+05  2.12e-06 2.78e-05  7.98e-05   136s
  58   7.24570252e+05  7.24448676e+05  1.80e-06 2.22e-05  6.60e-05   138s
  59   7.24550980e+05  7.24449951e+05  1.50e-06 1.84e-05  5.48e-05   139s
  60   7.24533102e+05  7.24452487e+05  1.25e-06 1.33e-05  4.37e-05   141s
  61   7.24517186e+05  7.24453979e+05  9.88e-07 9.59e-06  3.43e-05   143s
  62   7.24503535e+05  7.24455023e+05  7.66e-07 7.83e-06  2.63e-05   144s
  63   7.24492422e+05  7.24456302e+05  5.94e-07 5.41e-06  1.96e-05   145s
  64   7.24484663e+05  7.24456797e+05  4.75e-07 3.98e-06  1.51e-05   147s
  65   7.24475962e+05  7.24457142e+05  3.28e-07 3.20e-06  1.02e-05   149s
  66   7.24472774e+05  7.24457497e+05  2.67e-07 2.65e-06  8.28e-06   150s
  67   7.24470682e+05  7.24457907e+05  2.26e-07 2.00e-06  6.93e-06   152s
  68   7.24468204e+05  7.24458193e+05  1.78e-07 1.40e-06  5.43e-06   153s
  69   7.24465425e+05  7.24458453e+05  1.25e-07 8.04e-07  3.78e-06   155s
  70   7.24462269e+05  7.24458709e+05  6.31e-08 2.90e-07  1.93e-06   156s
  71   7.24460154e+05  7.24458817e+05  2.24e-08 1.44e-07  7.25e-07   158s
  72   7.24459873e+05  7.24458844e+05  1.72e-08 1.13e-07  5.58e-07   159s
  73   7.24459414e+05  7.24458866e+05  8.47e-09 1.06e-07  2.97e-07   161s
  74   7.24459216e+05  7.24458907e+05  4.66e-09 2.63e-07  1.68e-07   162s
  75   7.24459124e+05  7.24458940e+05  2.98e-09 6.16e-08  9.96e-08   163s
  76   7.24458987e+05  7.24458954e+05  5.69e-10 8.26e-08  1.81e-08   164s
  77   7.24458984e+05  7.24458954e+05  8.67e-08 7.52e-08  1.64e-08   166s
  78   7.24458984e+05  7.24458954e+05  2.08e-07 7.52e-08  1.64e-08   167s
  79   7.24458984e+05  7.24458954e+05  1.88e-07 7.51e-08  1.64e-08   168s

Barrier solved model in 79 iterations and 168.25 seconds
Optimal objective 7.24458984e+05


Root crossover log...

  409960 variables added to crossover basis                      170s
  412191 variables added to crossover basis                      175s

  211144 DPushes remaining with DInf 0.0000000e+00               177s
     561 DPushes remaining with DInf 0.0000000e+00               183s
     281 DPushes remaining with DInf 0.0000000e+00               185s
      11 DPushes remaining with DInf 0.0000000e+00               190s
       0 DPushes remaining with DInf 0.0000000e+00               191s

    4616 PPushes remaining with PInf 0.0000000e+00               191s
       0 PPushes remaining with PInf 3.0976386e-05               194s

  Push phase complete: Pinf 3.0976386e-05, Dinf 2.1236752e-09    194s


Root simplex log...

Iteration    Objective       Primal Inf.    Dual Inf.      Time
   39079    7.2445895e+05   3.097639e-05   0.000000e+00    195s
   39082    7.2445895e+05   0.000000e+00   0.000000e+00    195s
   39082    7.2445895e+05   0.000000e+00   0.000000e+00    196s

Solved with barrier

Root relaxation: objective 7.244590e+05, 39082 iterations, 173.78 seconds
Total elapsed time = 205.02s

    Nodes    |    Current Node    |     Objective Bounds      |     Work
 Expl Unexpl |  Obj  Depth IntInf | Incumbent    BestBd   Gap | It/Node Time

     0     0 724458.954    0 57633 1008143.00 724458.954  28.1%     -  210s
H    0     0                    802071.00000 724458.954  9.68%     -  219s
H    0     0                    789867.00000 724458.954  8.28%     -  232s

Explored 1 nodes (48670 simplex iterations) in 315.74 seconds
Thread count was 16 (of 16 available processors)

Solution count 3: 789867 802071 1.00814e+06 

Time limit reached
Best objective 7.898670000000e+05, best bound 7.244590000000e+05, gap 8.2809%

User-callback calls 41029, time in user-callback 0.50 sec
['/opt/local/stow/gurobi910/linux64/lib/libgurobi91.so']
Result: runtime=210.08sec; objective=789867; gap=0.0828%
Solution written to /autofs/unityaccount/cremi/mdeboute/Bureau/multi-period-flp/solution//instSingle_I50_J1000_T12_0_result.txt
